%chk=bromo_methane.chk
# hf/sto-3g geom=connectivity

Title Card Required

0 1
 C                 -0.00000000    0.00000000   -1.49008927
 H                 -0.00000000    1.02108137   -1.86185239
 H                  0.88428240   -0.51054068   -1.86185239
 H                 -0.88428240   -0.51054068   -1.86185239
 Br                 0.00000000    0.00000000    0.41503122

 1 2 1.0 3 1.0 4 1.0 5 1.0
 2
 3
 4
 5

