%chk=iodo_methane.chk
# hf/sto-3g geom=connectivity

Title Card Required

0 1
 C                 -0.00000000   -0.00000000   -1.78614795
 H                 -0.00000000    1.01835826   -2.15779819
 H                  0.88192413   -0.50917913   -2.15779819
 H                 -0.88192413   -0.50917913   -2.15779819
 I                  0.00000000    0.00000000    0.32434495

 1 2 1.0 3 1.0 4 1.0 5 1.0
 2
 3
 4
 5

