%chk=transition_state.chk
# hf/sto-3g geom=connectivity

Title Card Required

-1 1
 C                 -0.01113196   -0.01812123    0.00009014
 H                 -0.37433438   -0.54067947   -0.87732640
 H                 -0.37443656   -0.52196261    0.88834491
 H                 -0.39076922    0.99708353   -0.01068920
 I                  2.13219840    0.00193870   -0.00000969
 Br                -3.19429094    0.00204385   -0.00001019

 1 2 1.0 3 1.0 4 1.0 5 0.5 6 0.5
 2
 3
 4
 5
 6

