%chk=bromide_ion.chk
# uhf/sto-3g geom=connectivity

Title Card Required

-1 1
 Br                 0.00000000    0.00000000    0.00000000

 1

