%chk=chloride_ion.chk
# hf/sto-3g geom=connectivity

Title Card Required

-1 1
 Cl                 0.00000000    0.00000000    0.00000000

 1

