%chk=transition_state.chk
# hf/sto-3g geom=connectivity

Title Card Required

-1 1
 C                 -0.19413035   -0.00461528   -0.00000794
 H                 -0.56986023    0.50406980    0.88255647
 H                 -0.56984998    0.50372627   -0.88277460
 H                 -0.56497521   -1.02506932    0.00018885
 Cl                -3.39392581    0.00101047    0.00000173
 Br                 1.73046304    0.00079391    0.00000136

 1 2 1.0 3 1.0 4 1.0 5 0.5 6 0.5
 2
 3
 4
 5
 6

