%chk=hydrogen_sulphide_monomer.chk
# hf/sto-3g geom=connectivity

Title Card Required

0 1
 S                 -0.00000000    0.00000000    0.10206622
 H                  0.00000000    0.95995510   -0.81652976
 H                 -0.00000000   -0.95995510   -0.81652976

 1 2 1.0 3 1.0
 2
 3

