%chk=water_monomer.chk
# hf/sto-3g geom=connectivity

Title Card Required

0 1
 O                  0.00000000   -0.00000000    0.12713108
 H                  0.00000000    0.75801594   -0.50852432
 H                 -0.00000000   -0.75801594   -0.50852432

 1 2 1.0 3 1.0
 2
 3

