%chk=water_dimer.chk
# opt hf/sto-3g geom=connectivity

Title Card Required

0 1
 O                 -2.18162836    0.46450940    0.00000000
 H                 -1.22162836    0.46450940    0.00000000
 H                 -2.50208295    1.36944523    0.00000000
 O                  0.28337902    1.17141185    0.13778056
 H                  0.47722432    0.33998070    0.57680931
 H                  0.72445355    1.19416960   -0.71458987

 1 2 1.0 3 1.0
 2
 3
 4 5 1.0 6 1.0
 5
 6

