%chk=fluoride_ion.chk
# hf/sto-3g geom=connectivity

Title Card Required

-1 1
 F                  0.00000000    0.00000000    0.00000000

 1

