%chk=fluoro_methane.chk
# hf/sto-3g geom=connectivity

Title Card Required

0 1
 C                 -0.00000000   -0.00000000   -0.62760148
 H                  0.00000000    1.02591290   -1.01370116
 H                  0.88846663   -0.51295645   -1.01370116
 H                 -0.88846663   -0.51295645   -1.01370116
 F                  0.00000000    0.00000000    0.75630137

 1 2 1.0 3 1.0 4 1.0 5 1.0
 2
 3
 4
 5

