%chk=transition_state.chk
# hf/sto-3g geom=connectivity

Title Card Required

-1 1
 C                 -0.66231834   -0.44751177   -0.00351247
 H                  0.14659292   -1.14470916   -0.01075214
 H                 -0.15699641    0.37087108    0.48102972
 H                 -1.62325003   -0.81523017   -0.21258054
 I                  0.00565430   -0.39445920   -1.99583734
 F                 -1.57463420   -0.63678906    1.48479429

 1 2 1.0 3 1.0 4 1.0 5 0.5 6 0.5
 2
 3
 4
 5
 6

