%chk=bromo_ethane.chk
# hf/sto-3g geom=connectivity

Title Card Required

0 1
 C                  2.07996092   -0.39276609   -0.00000016
 C                  0.97676214    0.68288144   -0.00000017
 H                  2.00532494   -1.02240058    0.88155613
 H                  2.00530031   -1.02242758   -0.88153534
 H                  3.05548440    0.08675163   -0.00002102
 H                  1.07513061    1.31711716   -0.88002825
 H                  1.07512980    1.31711151    0.88003166
 Br                -0.78733453   -0.06905269   -0.00000003

 1 2 1.0 3 1.0 4 1.0 5 1.0
 2 6 1.0 7 1.0 8 1.0
 3
 4
 5
 6
 7
 8

