%chk=hydroxide_ion.chk
# hf/sto-3g geom=connectivity

Title Card Required

-1 1
 O                 -0.00000000    0.00000000    0.11865694
 H                  0.00000000   -0.00000000   -0.94925553

 1 2 1.0
 2

