%chk=iodide_ion.chk
# hf/sto-3g geom=connectivity

Title Card Required

-1 1
 I                  0.00000000    0.00000000    0.00000000

 1

