%chk=boat_cyclohexane.chk
# hf/sto-3g geom=connectivity

Title Card Required

0 1
 C                 -0.66979796    1.23015067    0.38128190
 C                 -1.53488596    0.00045832   -0.00030181
 C                 -0.67042677   -1.22974266   -0.38152560
 C                  0.66938527   -1.22996152    0.38199005
 C                  1.53488577   -0.00097029   -0.00058771
 C                  0.67084088    1.22993019   -0.38081949
 H                 -1.22019005   -2.14424722   -0.17078873
 H                 -2.18203616   -0.25165512    0.83677726
 H                 -2.18185892    0.25290463   -0.83741928
 H                  0.46854908    1.21925357   -1.44959190
 H                 -0.46757195    1.21817376    1.45005042
 H                  0.46604643   -1.21643729    1.45052787
 H                  1.21835354   -2.14515941    0.17218578
 H                  2.18027261   -0.25403863   -0.83873983
 H                  2.18362195    0.25051770    0.83545354
 H                  1.22054899    2.14405746   -0.16831540
 H                 -1.21871033    2.14497276    0.16970660
 H                 -0.46703263   -1.21753052   -1.45007036

 1 2 1.0 6 1.0 11 1.0 17 1.0
 2 3 1.0 8 1.0 9 1.0
 3 4 1.0 7 1.0 18 1.0
 4 5 1.0 12 1.0 13 1.0
 5 6 1.0 14 1.0 15 1.0
 6 10 1.0 16 1.0
 7
 8
 9
 10
 11
 12
 13
 14
 15
 16
 17
 18

